8	8
39	204	10	384	75	56	26	120
187	202	222	11	17	143	122	44
52	86	208	244	126	30	167	62
110	325	67	178	43	167	97	8
7	66	132	18	258	155	286	43
303	44	10	44	167	3	103	260
108	5	143	16	35	253	155	207
194	44	167	54	184	130	21	156
